c t mc
c file mc2022_track1_152.cnf
p cnf 440 1876
-1 -221 0
-2 -222 0
-3 -223 0
-4 -224 0
-5 -225 0
-6 -226 0
-7 -227 0
-8 -228 0
-9 -229 0
-10 -230 0
-11 -231 0
-12 -232 0
-13 -233 0
-14 -234 0
-15 -235 0
-16 -236 0
-17 -237 0
-18 -238 0
-19 -239 0
-20 -240 0
-21 -241 0
-22 -242 0
-23 -243 0
-24 -244 0
-25 -245 0
-26 -246 0
-27 -247 0
-28 -248 0
-29 -249 0
-30 -250 0
-31 -251 0
-32 -252 0
-33 -253 0
-34 -254 0
-35 -255 0
-36 -256 0
-37 -257 0
-38 -258 0
-39 -259 0
-40 -260 0
-41 -261 0
-42 -262 0
-43 -263 0
-44 -264 0
-45 -265 0
-46 -266 0
-47 -267 0
-48 -268 0
-49 -269 0
-50 -270 0
-51 -271 0
-52 -272 0
-53 -273 0
-54 -274 0
-55 -275 0
-56 -276 0
-57 -277 0
-58 -278 0
-59 -279 0
-60 -280 0
-61 -281 0
-62 -282 0
-63 -283 0
-64 -284 0
-65 -285 0
-66 -286 0
-67 -287 0
-68 -288 0
-69 -289 0
-70 -290 0
-71 -291 0
-72 -292 0
-73 -293 0
-74 -294 0
-75 -295 0
-76 -296 0
-77 -297 0
-78 -298 0
-79 -299 0
-80 -300 0
-81 -301 0
-82 -302 0
-83 -303 0
-84 -304 0
-85 -305 0
-86 -306 0
-87 -307 0
-88 -308 0
-89 -309 0
-90 -310 0
-91 -311 0
-92 -312 0
-93 -313 0
-94 -314 0
-95 -315 0
-96 -316 0
-97 -317 0
-98 -318 0
-99 -319 0
-100 -320 0
-101 -321 0
-102 -322 0
-103 -323 0
-104 -324 0
-105 -325 0
-106 -326 0
-107 -327 0
-108 -328 0
-109 -329 0
-110 -330 0
-111 -331 0
-112 -332 0
-113 -333 0
-114 -334 0
-115 -335 0
-116 -336 0
-117 -337 0
-118 -338 0
-119 -339 0
-120 -340 0
-121 -341 0
-122 -342 0
-123 -343 0
-124 -344 0
-125 -345 0
-126 -346 0
-127 -347 0
-128 -348 0
-129 -349 0
-130 -350 0
-131 -351 0
-132 -352 0
-133 -353 0
-134 -354 0
-135 -355 0
-136 -356 0
-137 -357 0
-138 -358 0
-139 -359 0
-140 -360 0
-141 -361 0
-142 -362 0
-143 -363 0
-144 -364 0
-145 -365 0
-146 -366 0
-147 -367 0
-148 -368 0
-149 -369 0
-150 -370 0
-151 -371 0
-152 -372 0
-153 -373 0
-154 -374 0
-155 -375 0
-156 -376 0
-157 -377 0
-158 -378 0
-159 -379 0
-160 -380 0
-161 -381 0
-162 -382 0
-163 -383 0
-164 -384 0
-165 -385 0
-166 -386 0
-167 -387 0
-168 -388 0
-169 -389 0
-170 -390 0
-171 -391 0
-172 -392 0
-173 -393 0
-174 -394 0
-175 -395 0
-176 -396 0
-177 -397 0
-178 -398 0
-179 -399 0
-180 -400 0
-181 -401 0
-182 -402 0
-183 -403 0
-184 -404 0
-185 -405 0
-186 -406 0
-187 -407 0
-188 -408 0
-189 -409 0
-190 -410 0
-191 -411 0
-192 -412 0
-193 -413 0
-194 -414 0
-195 -415 0
-196 -416 0
-197 -417 0
-198 -418 0
-199 -419 0
-200 -420 0
-201 -421 0
-202 -422 0
-203 -423 0
-204 -424 0
-205 -425 0
-206 -426 0
-207 -427 0
-208 -428 0
-209 -429 0
-210 -430 0
-211 -431 0
-212 -432 0
-213 -433 0
-214 -434 0
-215 -435 0
-216 -436 0
-217 -437 0
-218 -438 0
-219 -439 0
-220 -440 0
-16 0
-236 0
118 0
-338 0
-142 0
362 0
1 221 167 387 0
-1 221 -167 387 0
1 -221 167 -387 0
1 221 99 319 0
-1 221 -99 319 0
1 -221 99 -319 0
1 221 42 262 0
-1 221 -42 262 0
1 -221 42 -262 0
1 221 3 223 0
-1 221 -3 223 0
1 -221 3 -223 0
1 221 157 377 0
-1 221 -157 377 0
1 -221 157 -377 0
2 222 78 298 0
-2 222 -78 298 0
2 -222 78 -298 0
2 222 171 391 0
-2 222 -171 391 0
2 -222 171 -391 0
2 222 125 345 0
-2 222 -125 345 0
2 -222 125 -345 0
2 222 192 412 0
-2 222 -192 412 0
2 -222 192 -412 0
2 222 170 390 0
-2 222 -170 390 0
2 -222 170 -390 0
3 223 63 283 0
-3 223 -63 283 0
3 -223 63 -283 0
3 223 209 429 0
-3 223 -209 429 0
3 -223 209 -429 0
3 223 191 411 0
-3 223 -191 411 0
3 -223 191 -411 0
3 223 41 261 0
-3 223 -41 261 0
3 -223 41 -261 0
4 224 74 294 0
-4 224 -74 294 0
4 -224 74 -294 0
4 224 68 288 0
-4 224 -68 288 0
4 -224 68 -288 0
4 224 190 410 0
-4 224 -190 410 0
4 -224 190 -410 0
4 224 25 245 0
-4 224 -25 245 0
4 -224 25 -245 0
4 224 109 329 0
-4 224 -109 329 0
4 -224 109 -329 0
5 225 37 257 0
-5 225 -37 257 0
5 -225 37 -257 0
5 225 58 278 0
-5 225 -58 278 0
5 -225 58 -278 0
5 225 153 373 0
-5 225 -153 373 0
5 -225 153 -373 0
5 225 207 427 0
-5 225 -207 427 0
5 -225 207 -427 0
5 225 75 295 0
-5 225 -75 295 0
5 -225 75 -295 0
6 226 33 253 0
-6 226 -33 253 0
6 -226 33 -253 0
6 226 218 438 0
-6 226 -218 438 0
6 -226 218 -438 0
6 226 190 410 0
-6 226 -190 410 0
6 -226 190 -410 0
6 226 66 286 0
-6 226 -66 286 0
6 -226 66 -286 0
6 226 201 421 0
-6 226 -201 421 0
6 -226 201 -421 0
7 227 94 314 0
-7 227 -94 314 0
7 -227 94 -314 0
7 227 55 275 0
-7 227 -55 275 0
7 -227 55 -275 0
7 227 220 440 0
-7 227 -220 440 0
7 -227 220 -440 0
7 227 89 309 0
-7 227 -89 309 0
7 -227 89 -309 0
7 227 42 262 0
-7 227 -42 262 0
7 -227 42 -262 0
8 228 209 429 0
-8 228 -209 429 0
8 -228 209 -429 0
8 228 176 396 0
-8 228 -176 396 0
8 -228 176 -396 0
8 228 141 361 0
-8 228 -141 361 0
8 -228 141 -361 0
8 228 164 384 0
-8 228 -164 384 0
8 -228 164 -384 0
8 228 45 265 0
-8 228 -45 265 0
8 -228 45 -265 0
9 229 117 337 0
-9 229 -117 337 0
9 -229 117 -337 0
9 229 73 293 0
-9 229 -73 293 0
9 -229 73 -293 0
9 229 54 274 0
-9 229 -54 274 0
9 -229 54 -274 0
9 229 46 266 0
-9 229 -46 266 0
9 -229 46 -266 0
9 229 46 266 0
-9 229 -46 266 0
9 -229 46 -266 0
10 230 73 293 0
-10 230 -73 293 0
10 -230 73 -293 0
10 230 11 231 0
-10 230 -11 231 0
10 -230 11 -231 0
10 230 145 365 0
-10 230 -145 365 0
10 -230 145 -365 0
10 230 143 363 0
-10 230 -143 363 0
10 -230 143 -363 0
10 230 35 255 0
-10 230 -35 255 0
10 -230 35 -255 0
11 231 213 433 0
-11 231 -213 433 0
11 -231 213 -433 0
11 231 13 233 0
-11 231 -13 233 0
11 -231 13 -233 0
11 231 116 336 0
-11 231 -116 336 0
11 -231 116 -336 0
11 231 149 369 0
-11 231 -149 369 0
11 -231 149 -369 0
12 232 108 328 0
-12 232 -108 328 0
12 -232 108 -328 0
12 232 167 387 0
-12 232 -167 387 0
12 -232 167 -387 0
12 232 145 365 0
-12 232 -145 365 0
12 -232 145 -365 0
12 232 100 320 0
-12 232 -100 320 0
12 -232 100 -320 0
12 232 200 420 0
-12 232 -200 420 0
12 -232 200 -420 0
13 233 206 426 0
-13 233 -206 426 0
13 -233 206 -426 0
13 233 167 387 0
-13 233 -167 387 0
13 -233 167 -387 0
13 233 214 434 0
-13 233 -214 434 0
13 -233 214 -434 0
13 233 67 287 0
-13 233 -67 287 0
13 -233 67 -287 0
14 234 213 433 0
-14 234 -213 433 0
14 -234 213 -433 0
14 234 27 247 0
-14 234 -27 247 0
14 -234 27 -247 0
14 234 139 359 0
-14 234 -139 359 0
14 -234 139 -359 0
14 234 134 354 0
-14 234 -134 354 0
14 -234 134 -354 0
14 234 98 318 0
-14 234 -98 318 0
14 -234 98 -318 0
15 235 47 267 0
-15 235 -47 267 0
15 -235 47 -267 0
15 235 119 339 0
-15 235 -119 339 0
15 -235 119 -339 0
15 235 110 330 0
-15 235 -110 330 0
15 -235 110 -330 0
15 235 205 425 0
-15 235 -205 425 0
15 -235 205 -425 0
15 235 70 290 0
-15 235 -70 290 0
15 -235 70 -290 0
16 236 198 418 0
-16 236 -198 418 0
16 -236 198 -418 0
16 236 142 362 0
-16 236 -142 362 0
16 -236 142 -362 0
16 236 118 338 0
-16 236 -118 338 0
16 -236 118 -338 0
16 236 70 290 0
-16 236 -70 290 0
16 -236 70 -290 0
16 236 208 428 0
-16 236 -208 428 0
16 -236 208 -428 0
17 237 39 259 0
-17 237 -39 259 0
17 -237 39 -259 0
17 237 76 296 0
-17 237 -76 296 0
17 -237 76 -296 0
17 237 50 270 0
-17 237 -50 270 0
17 -237 50 -270 0
17 237 111 331 0
-17 237 -111 331 0
17 -237 111 -331 0
17 237 19 239 0
-17 237 -19 239 0
17 -237 19 -239 0
18 238 188 408 0
-18 238 -188 408 0
18 -238 188 -408 0
18 238 181 401 0
-18 238 -181 401 0
18 -238 181 -401 0
18 238 180 400 0
-18 238 -180 400 0
18 -238 180 -400 0
18 238 205 425 0
-18 238 -205 425 0
18 -238 205 -425 0
18 238 212 432 0
-18 238 -212 432 0
18 -238 212 -432 0
19 239 36 256 0
-19 239 -36 256 0
19 -239 36 -256 0
19 239 172 392 0
-19 239 -172 392 0
19 -239 172 -392 0
19 239 143 363 0
-19 239 -143 363 0
19 -239 143 -363 0
19 239 116 336 0
-19 239 -116 336 0
19 -239 116 -336 0
20 240 66 286 0
-20 240 -66 286 0
20 -240 66 -286 0
20 240 81 301 0
-20 240 -81 301 0
20 -240 81 -301 0
20 240 46 266 0
-20 240 -46 266 0
20 -240 46 -266 0
20 240 105 325 0
-20 240 -105 325 0
20 -240 105 -325 0
20 240 123 343 0
-20 240 -123 343 0
20 -240 123 -343 0
21 241 173 393 0
-21 241 -173 393 0
21 -241 173 -393 0
21 241 122 342 0
-21 241 -122 342 0
21 -241 122 -342 0
21 241 88 308 0
-21 241 -88 308 0
21 -241 88 -308 0
21 241 121 341 0
-21 241 -121 341 0
21 -241 121 -341 0
21 241 200 420 0
-21 241 -200 420 0
21 -241 200 -420 0
22 242 191 411 0
-22 242 -191 411 0
22 -242 191 -411 0
22 242 30 250 0
-22 242 -30 250 0
22 -242 30 -250 0
22 242 71 291 0
-22 242 -71 291 0
22 -242 71 -291 0
22 242 145 365 0
-22 242 -145 365 0
22 -242 145 -365 0
22 242 49 269 0
-22 242 -49 269 0
22 -242 49 -269 0
23 243 52 272 0
-23 243 -52 272 0
23 -243 52 -272 0
23 243 95 315 0
-23 243 -95 315 0
23 -243 95 -315 0
23 243 160 380 0
-23 243 -160 380 0
23 -243 160 -380 0
23 243 66 286 0
-23 243 -66 286 0
23 -243 66 -286 0
23 243 210 430 0
-23 243 -210 430 0
23 -243 210 -430 0
24 244 81 301 0
-24 244 -81 301 0
24 -244 81 -301 0
24 244 73 293 0
-24 244 -73 293 0
24 -244 73 -293 0
24 244 82 302 0
-24 244 -82 302 0
24 -244 82 -302 0
24 244 204 424 0
-24 244 -204 424 0
24 -244 204 -424 0
24 244 153 373 0
-24 244 -153 373 0
24 -244 153 -373 0
25 245 183 403 0
-25 245 -183 403 0
25 -245 183 -403 0
25 245 106 326 0
-25 245 -106 326 0
25 -245 106 -326 0
25 245 122 342 0
-25 245 -122 342 0
25 -245 122 -342 0
25 245 72 292 0
-25 245 -72 292 0
25 -245 72 -292 0
26 246 134 354 0
-26 246 -134 354 0
26 -246 134 -354 0
26 246 41 261 0
-26 246 -41 261 0
26 -246 41 -261 0
26 246 150 370 0
-26 246 -150 370 0
26 -246 150 -370 0
26 246 107 327 0
-26 246 -107 327 0
26 -246 107 -327 0
26 246 62 282 0
-26 246 -62 282 0
26 -246 62 -282 0
27 247 93 313 0
-27 247 -93 313 0
27 -247 93 -313 0
27 247 104 324 0
-27 247 -104 324 0
27 -247 104 -324 0
27 247 178 398 0
-27 247 -178 398 0
27 -247 178 -398 0
27 247 216 436 0
-27 247 -216 436 0
27 -247 216 -436 0
28 248 175 395 0
-28 248 -175 395 0
28 -248 175 -395 0
28 248 132 352 0
-28 248 -132 352 0
28 -248 132 -352 0
28 248 100 320 0
-28 248 -100 320 0
28 -248 100 -320 0
28 248 188 408 0
-28 248 -188 408 0
28 -248 188 -408 0
28 248 60 280 0
-28 248 -60 280 0
28 -248 60 -280 0
29 249 69 289 0
-29 249 -69 289 0
29 -249 69 -289 0
29 249 214 434 0
-29 249 -214 434 0
29 -249 214 -434 0
29 249 144 364 0
-29 249 -144 364 0
29 -249 144 -364 0
29 249 205 425 0
-29 249 -205 425 0
29 -249 205 -425 0
29 249 155 375 0
-29 249 -155 375 0
29 -249 155 -375 0
30 250 101 321 0
-30 250 -101 321 0
30 -250 101 -321 0
30 250 39 259 0
-30 250 -39 259 0
30 -250 39 -259 0
30 250 114 334 0
-30 250 -114 334 0
30 -250 114 -334 0
30 250 64 284 0
-30 250 -64 284 0
30 -250 64 -284 0
31 251 75 295 0
-31 251 -75 295 0
31 -251 75 -295 0
31 251 65 285 0
-31 251 -65 285 0
31 -251 65 -285 0
31 251 100 320 0
-31 251 -100 320 0
31 -251 100 -320 0
31 251 114 334 0
-31 251 -114 334 0
31 -251 114 -334 0
31 251 60 280 0
-31 251 -60 280 0
31 -251 60 -280 0
32 252 56 276 0
-32 252 -56 276 0
32 -252 56 -276 0
32 252 80 300 0
-32 252 -80 300 0
32 -252 80 -300 0
32 252 215 435 0
-32 252 -215 435 0
32 -252 215 -435 0
32 252 191 411 0
-32 252 -191 411 0
32 -252 191 -411 0
32 252 130 350 0
-32 252 -130 350 0
32 -252 130 -350 0
33 253 179 399 0
-33 253 -179 399 0
33 -253 179 -399 0
33 253 142 362 0
-33 253 -142 362 0
33 -253 142 -362 0
33 253 91 311 0
-33 253 -91 311 0
33 -253 91 -311 0
33 253 162 382 0
-33 253 -162 382 0
33 -253 162 -382 0
34 254 80 300 0
-34 254 -80 300 0
34 -254 80 -300 0
34 254 188 408 0
-34 254 -188 408 0
34 -254 188 -408 0
34 254 49 269 0
-34 254 -49 269 0
34 -254 49 -269 0
34 254 57 277 0
-34 254 -57 277 0
34 -254 57 -277 0
34 254 155 375 0
-34 254 -155 375 0
34 -254 155 -375 0
35 255 204 424 0
-35 255 -204 424 0
35 -255 204 -424 0
35 255 90 310 0
-35 255 -90 310 0
35 -255 90 -310 0
35 255 61 281 0
-35 255 -61 281 0
35 -255 61 -281 0
35 255 136 356 0
-35 255 -136 356 0
35 -255 136 -356 0
36 256 132 352 0
-36 256 -132 352 0
36 -256 132 -352 0
36 256 156 376 0
-36 256 -156 376 0
36 -256 156 -376 0
36 256 85 305 0
-36 256 -85 305 0
36 -256 85 -305 0
36 256 164 384 0
-36 256 -164 384 0
36 -256 164 -384 0
37 257 115 335 0
-37 257 -115 335 0
37 -257 115 -335 0
37 257 125 345 0
-37 257 -125 345 0
37 -257 125 -345 0
37 257 182 402 0
-37 257 -182 402 0
37 -257 182 -402 0
37 257 211 431 0
-37 257 -211 431 0
37 -257 211 -431 0
38 258 112 332 0
-38 258 -112 332 0
38 -258 112 -332 0
38 258 189 409 0
-38 258 -189 409 0
38 -258 189 -409 0
38 258 138 358 0
-38 258 -138 358 0
38 -258 138 -358 0
38 258 118 338 0
-38 258 -118 338 0
38 -258 118 -338 0
38 258 213 433 0
-38 258 -213 433 0
38 -258 213 -433 0
39 259 210 430 0
-39 259 -210 430 0
39 -259 210 -430 0
39 259 95 315 0
-39 259 -95 315 0
39 -259 95 -315 0
39 259 112 332 0
-39 259 -112 332 0
39 -259 112 -332 0
40 260 65 285 0
-40 260 -65 285 0
40 -260 65 -285 0
40 260 143 363 0
-40 260 -143 363 0
40 -260 143 -363 0
40 260 68 288 0
-40 260 -68 288 0
40 -260 68 -288 0
40 260 193 413 0
-40 260 -193 413 0
40 -260 193 -413 0
40 260 102 322 0
-40 260 -102 322 0
40 -260 102 -322 0
41 261 211 431 0
-41 261 -211 431 0
41 -261 211 -431 0
41 261 48 268 0
-41 261 -48 268 0
41 -261 48 -268 0
41 261 120 340 0
-41 261 -120 340 0
41 -261 120 -340 0
42 262 72 292 0
-42 262 -72 292 0
42 -262 72 -292 0
42 262 169 389 0
-42 262 -169 389 0
42 -262 169 -389 0
42 262 153 373 0
-42 262 -153 373 0
42 -262 153 -373 0
43 263 99 319 0
-43 263 -99 319 0
43 -263 99 -319 0
43 263 217 437 0
-43 263 -217 437 0
43 -263 217 -437 0
43 263 98 318 0
-43 263 -98 318 0
43 -263 98 -318 0
43 263 165 385 0
-43 263 -165 385 0
43 -263 165 -385 0
43 263 46 266 0
-43 263 -46 266 0
43 -263 46 -266 0
44 264 109 329 0
-44 264 -109 329 0
44 -264 109 -329 0
44 264 136 356 0
-44 264 -136 356 0
44 -264 136 -356 0
44 264 216 436 0
-44 264 -216 436 0
44 -264 216 -436 0
44 264 45 265 0
-44 264 -45 265 0
44 -264 45 -265 0
44 264 218 438 0
-44 264 -218 438 0
44 -264 218 -438 0
45 265 202 422 0
-45 265 -202 422 0
45 -265 202 -422 0
45 265 54 274 0
-45 265 -54 274 0
45 -265 54 -274 0
45 265 179 399 0
-45 265 -179 399 0
45 -265 179 -399 0
46 266 121 341 0
-46 266 -121 341 0
46 -266 121 -341 0
47 267 120 340 0
-47 267 -120 340 0
47 -267 120 -340 0
47 267 180 400 0
-47 267 -180 400 0
47 -267 180 -400 0
47 267 213 433 0
-47 267 -213 433 0
47 -267 213 -433 0
47 267 126 346 0
-47 267 -126 346 0
47 -267 126 -346 0
48 268 189 409 0
-48 268 -189 409 0
48 -268 189 -409 0
48 268 104 324 0
-48 268 -104 324 0
48 -268 104 -324 0
48 268 178 398 0
-48 268 -178 398 0
48 -268 178 -398 0
48 268 111 331 0
-48 268 -111 331 0
48 -268 111 -331 0
49 269 188 408 0
-49 269 -188 408 0
49 -269 188 -408 0
49 269 53 273 0
-49 269 -53 273 0
49 -269 53 -273 0
49 269 52 272 0
-49 269 -52 272 0
49 -269 52 -272 0
50 270 138 358 0
-50 270 -138 358 0
50 -270 138 -358 0
50 270 81 301 0
-50 270 -81 301 0
50 -270 81 -301 0
50 270 215 435 0
-50 270 -215 435 0
50 -270 215 -435 0
50 270 203 423 0
-50 270 -203 423 0
50 -270 203 -423 0
51 271 101 321 0
-51 271 -101 321 0
51 -271 101 -321 0
51 271 92 312 0
-51 271 -92 312 0
51 -271 92 -312 0
51 271 65 285 0
-51 271 -65 285 0
51 -271 65 -285 0
51 271 154 374 0
-51 271 -154 374 0
51 -271 154 -374 0
51 271 151 371 0
-51 271 -151 371 0
51 -271 151 -371 0
52 272 76 296 0
-52 272 -76 296 0
52 -272 76 -296 0
52 272 187 407 0
-52 272 -187 407 0
52 -272 187 -407 0
52 272 70 290 0
-52 272 -70 290 0
52 -272 70 -290 0
53 273 187 407 0
-53 273 -187 407 0
53 -273 187 -407 0
53 273 177 397 0
-53 273 -177 397 0
53 -273 177 -397 0
53 273 213 433 0
-53 273 -213 433 0
53 -273 213 -433 0
53 273 209 429 0
-53 273 -209 429 0
53 -273 209 -429 0
54 274 154 374 0
-54 274 -154 374 0
54 -274 154 -374 0
54 274 194 414 0
-54 274 -194 414 0
54 -274 194 -414 0
54 274 78 298 0
-54 274 -78 298 0
54 -274 78 -298 0
55 275 102 322 0
-55 275 -102 322 0
55 -275 102 -322 0
55 275 181 401 0
-55 275 -181 401 0
55 -275 181 -401 0
55 275 155 375 0
-55 275 -155 375 0
55 -275 155 -375 0
55 275 173 393 0
-55 275 -173 393 0
55 -275 173 -393 0
56 276 61 281 0
-56 276 -61 281 0
56 -276 61 -281 0
56 276 142 362 0
-56 276 -142 362 0
56 -276 142 -362 0
56 276 211 431 0
-56 276 -211 431 0
56 -276 211 -431 0
56 276 107 327 0
-56 276 -107 327 0
56 -276 107 -327 0
57 277 115 335 0
-57 277 -115 335 0
57 -277 115 -335 0
57 277 125 345 0
-57 277 -125 345 0
57 -277 125 -345 0
57 277 148 368 0
-57 277 -148 368 0
57 -277 148 -368 0
57 277 133 353 0
-57 277 -133 353 0
57 -277 133 -353 0
58 278 62 282 0
-58 278 -62 282 0
58 -278 62 -282 0
58 278 148 368 0
-58 278 -148 368 0
58 -278 148 -368 0
58 278 195 415 0
-58 278 -195 415 0
58 -278 195 -415 0
58 278 140 360 0
-58 278 -140 360 0
58 -278 140 -360 0
59 279 215 435 0
-59 279 -215 435 0
59 -279 215 -435 0
59 279 131 351 0
-59 279 -131 351 0
59 -279 131 -351 0
59 279 197 417 0
-59 279 -197 417 0
59 -279 197 -417 0
59 279 103 323 0
-59 279 -103 323 0
59 -279 103 -323 0
59 279 124 344 0
-59 279 -124 344 0
59 -279 124 -344 0
60 280 149 369 0
-60 280 -149 369 0
60 -280 149 -369 0
60 280 169 389 0
-60 280 -169 389 0
60 -280 169 -389 0
60 280 181 401 0
-60 280 -181 401 0
60 -280 181 -401 0
61 281 105 325 0
-61 281 -105 325 0
61 -281 105 -325 0
61 281 185 405 0
-61 281 -185 405 0
61 -281 185 -405 0
61 281 160 380 0
-61 281 -160 380 0
61 -281 160 -380 0
62 282 201 421 0
-62 282 -201 421 0
62 -282 201 -421 0
62 282 67 287 0
-62 282 -67 287 0
62 -282 67 -287 0
62 282 180 400 0
-62 282 -180 400 0
62 -282 180 -400 0
63 283 102 322 0
-63 283 -102 322 0
63 -283 102 -322 0
63 283 148 368 0
-63 283 -148 368 0
63 -283 148 -368 0
63 283 106 326 0
-63 283 -106 326 0
63 -283 106 -326 0
63 283 183 403 0
-63 283 -183 403 0
63 -283 183 -403 0
64 284 78 298 0
-64 284 -78 298 0
64 -284 78 -298 0
64 284 196 416 0
-64 284 -196 416 0
64 -284 196 -416 0
64 284 186 406 0
-64 284 -186 406 0
64 -284 186 -406 0
64 284 163 383 0
-64 284 -163 383 0
64 -284 163 -383 0
65 285 89 309 0
-65 285 -89 309 0
65 -285 89 -309 0
65 285 96 316 0
-65 285 -96 316 0
65 -285 96 -316 0
66 286 137 357 0
-66 286 -137 357 0
66 -286 137 -357 0
66 286 98 318 0
-66 286 -98 318 0
66 -286 98 -318 0
67 287 74 294 0
-67 287 -74 294 0
67 -287 74 -294 0
67 287 220 440 0
-67 287 -220 440 0
67 -287 220 -440 0
67 287 146 366 0
-67 287 -146 366 0
67 -287 146 -366 0
68 288 189 409 0
-68 288 -189 409 0
68 -288 189 -409 0
68 288 187 407 0
-68 288 -187 407 0
68 -288 187 -407 0
68 288 212 432 0
-68 288 -212 432 0
68 -288 212 -432 0
69 289 129 349 0
-69 289 -129 349 0
69 -289 129 -349 0
69 289 110 330 0
-69 289 -110 330 0
69 -289 110 -330 0
69 289 207 427 0
-69 289 -207 427 0
69 -289 207 -427 0
69 289 171 391 0
-69 289 -171 391 0
69 -289 171 -391 0
70 290 147 367 0
-70 290 -147 367 0
70 -290 147 -367 0
70 290 87 307 0
-70 290 -87 307 0
70 -290 87 -307 0
71 291 76 296 0
-71 291 -76 296 0
71 -291 76 -296 0
71 291 99 319 0
-71 291 -99 319 0
71 -291 99 -319 0
71 291 127 347 0
-71 291 -127 347 0
71 -291 127 -347 0
71 291 185 405 0
-71 291 -185 405 0
71 -291 185 -405 0
72 292 184 404 0
-72 292 -184 404 0
72 -292 184 -404 0
72 292 185 405 0
-72 292 -185 405 0
72 -292 185 -405 0
72 292 126 346 0
-72 292 -126 346 0
72 -292 126 -346 0
73 293 219 439 0
-73 293 -219 439 0
73 -293 219 -439 0
73 293 123 343 0
-73 293 -123 343 0
73 -293 123 -343 0
74 294 92 312 0
-74 294 -92 312 0
74 -294 92 -312 0
74 294 218 438 0
-74 294 -218 438 0
74 -294 218 -438 0
74 294 128 348 0
-74 294 -128 348 0
74 -294 128 -348 0
75 295 196 416 0
-75 295 -196 416 0
75 -295 196 -416 0
75 295 129 349 0
-75 295 -129 349 0
75 -295 129 -349 0
75 295 146 366 0
-75 295 -146 366 0
75 -295 146 -366 0
76 296 174 394 0
-76 296 -174 394 0
76 -296 174 -394 0
76 296 97 317 0
-76 296 -97 317 0
76 -296 97 -317 0
77 297 217 437 0
-77 297 -217 437 0
77 -297 217 -437 0
77 297 140 360 0
-77 297 -140 360 0
77 -297 140 -360 0
77 297 82 302 0
-77 297 -82 302 0
77 -297 82 -302 0
77 297 114 334 0
-77 297 -114 334 0
77 -297 114 -334 0
77 297 150 370 0
-77 297 -150 370 0
77 -297 150 -370 0
78 298 124 344 0
-78 298 -124 344 0
78 -298 124 -344 0
78 298 158 378 0
-78 298 -158 378 0
78 -298 158 -378 0
79 299 175 395 0
-79 299 -175 395 0
79 -299 175 -395 0
79 299 115 335 0
-79 299 -115 335 0
79 -299 115 -335 0
79 299 166 386 0
-79 299 -166 386 0
79 -299 166 -386 0
79 299 157 377 0
-79 299 -157 377 0
79 -299 157 -377 0
79 299 146 366 0
-79 299 -146 366 0
79 -299 146 -366 0
80 300 129 349 0
-80 300 -129 349 0
80 -300 129 -349 0
80 300 193 413 0
-80 300 -193 413 0
80 -300 193 -413 0
80 300 199 419 0
-80 300 -199 419 0
80 -300 199 -419 0
81 301 156 376 0
-81 301 -156 376 0
81 -301 156 -376 0
81 301 92 312 0
-81 301 -92 312 0
81 -301 92 -312 0
82 302 109 329 0
-82 302 -109 329 0
82 -302 109 -329 0
82 302 219 439 0
-82 302 -219 439 0
82 -302 219 -439 0
82 302 93 313 0
-82 302 -93 313 0
82 -302 93 -313 0
83 303 139 359 0
-83 303 -139 359 0
83 -303 139 -359 0
83 303 191 411 0
-83 303 -191 411 0
83 -303 191 -411 0
83 303 160 380 0
-83 303 -160 380 0
83 -303 160 -380 0
83 303 159 379 0
-83 303 -159 379 0
83 -303 159 -379 0
83 303 109 329 0
-83 303 -109 329 0
83 -303 109 -329 0
84 304 175 395 0
-84 304 -175 395 0
84 -304 175 -395 0
84 304 86 306 0
-84 304 -86 306 0
84 -304 86 -306 0
84 304 204 424 0
-84 304 -204 424 0
84 -304 204 -424 0
84 304 184 404 0
-84 304 -184 404 0
84 -304 184 -404 0
84 304 145 365 0
-84 304 -145 365 0
84 -304 145 -365 0
85 305 144 364 0
-85 305 -144 364 0
85 -305 144 -364 0
85 305 131 351 0
-85 305 -131 351 0
85 -305 131 -351 0
85 305 162 382 0
-85 305 -162 382 0
85 -305 162 -382 0
85 305 114 334 0
-85 305 -114 334 0
85 -305 114 -334 0
86 306 208 428 0
-86 306 -208 428 0
86 -306 208 -428 0
86 306 161 381 0
-86 306 -161 381 0
86 -306 161 -381 0
86 306 93 313 0
-86 306 -93 313 0
86 -306 93 -313 0
86 306 198 418 0
-86 306 -198 418 0
86 -306 198 -418 0
87 307 193 413 0
-87 307 -193 413 0
87 -307 193 -413 0
87 307 170 390 0
-87 307 -170 390 0
87 -307 170 -390 0
87 307 216 436 0
-87 307 -216 436 0
87 -307 216 -436 0
87 307 159 379 0
-87 307 -159 379 0
87 -307 159 -379 0
88 308 170 390 0
-88 308 -170 390 0
88 -308 170 -390 0
88 308 100 320 0
-88 308 -100 320 0
88 -308 100 -320 0
88 308 101 321 0
-88 308 -101 321 0
88 -308 101 -321 0
88 308 149 369 0
-88 308 -149 369 0
88 -308 149 -369 0
89 309 185 405 0
-89 309 -185 405 0
89 -309 185 -405 0
89 309 124 344 0
-89 309 -124 344 0
89 -309 124 -344 0
89 309 204 424 0
-89 309 -204 424 0
89 -309 204 -424 0
90 310 156 376 0
-90 310 -156 376 0
90 -310 156 -376 0
90 310 146 366 0
-90 310 -146 366 0
90 -310 146 -366 0
90 310 148 368 0
-90 310 -148 368 0
90 -310 148 -368 0
90 310 152 372 0
-90 310 -152 372 0
90 -310 152 -372 0
91 311 208 428 0
-91 311 -208 428 0
91 -311 208 -428 0
91 311 220 440 0
-91 311 -220 440 0
91 -311 220 -440 0
91 311 147 367 0
-91 311 -147 367 0
91 -311 147 -367 0
91 311 177 397 0
-91 311 -177 397 0
91 -311 177 -397 0
92 312 152 372 0
-92 312 -152 372 0
92 -312 152 -372 0
92 312 176 396 0
-92 312 -176 396 0
92 -312 176 -396 0
93 313 161 381 0
-93 313 -161 381 0
93 -313 161 -381 0
93 313 96 316 0
-93 313 -96 316 0
93 -313 96 -316 0
94 314 184 404 0
-94 314 -184 404 0
94 -314 184 -404 0
94 314 178 398 0
-94 314 -178 398 0
94 -314 178 -398 0
94 314 119 339 0
-94 314 -119 339 0
94 -314 119 -339 0
94 314 137 357 0
-94 314 -137 357 0
94 -314 137 -357 0
95 315 143 363 0
-95 315 -143 363 0
95 -315 143 -363 0
95 315 112 332 0
-95 315 -112 332 0
95 -315 112 -332 0
95 315 147 367 0
-95 315 -147 367 0
95 -315 147 -367 0
96 316 203 423 0
-96 316 -203 423 0
96 -316 203 -423 0
96 316 106 326 0
-96 316 -106 326 0
96 -316 106 -326 0
96 316 110 330 0
-96 316 -110 330 0
96 -316 110 -330 0
97 317 122 342 0
-97 317 -122 342 0
97 -317 122 -342 0
97 317 215 435 0
-97 317 -215 435 0
97 -317 215 -435 0
97 317 168 388 0
-97 317 -168 388 0
97 -317 168 -388 0
97 317 117 337 0
-97 317 -117 337 0
97 -317 117 -337 0
98 318 129 349 0
-98 318 -129 349 0
98 -318 129 -349 0
98 318 195 415 0
-98 318 -195 415 0
98 -318 195 -415 0
99 319 172 392 0
-99 319 -172 392 0
99 -319 172 -392 0
99 319 174 394 0
-99 319 -174 394 0
99 -319 174 -394 0
100 320 147 367 0
-100 320 -147 367 0
100 -320 147 -367 0
101 321 180 400 0
-101 321 -180 400 0
101 -321 180 -400 0
101 321 102 322 0
-101 321 -102 322 0
101 -321 102 -322 0
102 322 135 355 0
-102 322 -135 355 0
102 -322 135 -355 0
103 323 203 423 0
-103 323 -203 423 0
103 -323 203 -423 0
103 323 136 356 0
-103 323 -136 356 0
103 -323 136 -356 0
103 323 133 353 0
-103 323 -133 353 0
103 -323 133 -353 0
103 323 174 394 0
-103 323 -174 394 0
103 -323 174 -394 0
104 324 207 427 0
-104 324 -207 427 0
104 -324 207 -427 0
104 324 216 436 0
-104 324 -216 436 0
104 -324 216 -436 0
104 324 192 412 0
-104 324 -192 412 0
104 -324 192 -412 0
105 325 113 333 0
-105 325 -113 333 0
105 -325 113 -333 0
105 325 130 350 0
-105 325 -130 350 0
105 -325 130 -350 0
105 325 170 390 0
-105 325 -170 390 0
105 -325 170 -390 0
106 326 134 354 0
-106 326 -134 354 0
106 -326 134 -354 0
106 326 121 341 0
-106 326 -121 341 0
106 -326 121 -341 0
107 327 189 409 0
-107 327 -189 409 0
107 -327 189 -409 0
107 327 202 422 0
-107 327 -202 422 0
107 -327 202 -422 0
107 327 192 412 0
-107 327 -192 412 0
107 -327 192 -412 0
108 328 163 383 0
-108 328 -163 383 0
108 -328 163 -383 0
108 328 113 333 0
-108 328 -113 333 0
108 -328 113 -333 0
108 328 158 378 0
-108 328 -158 378 0
108 -328 158 -378 0
108 328 148 368 0
-108 328 -148 368 0
108 -328 148 -368 0
109 329 135 355 0
-109 329 -135 355 0
109 -329 135 -355 0
110 330 152 372 0
-110 330 -152 372 0
110 -330 152 -372 0
110 330 141 361 0
-110 330 -141 361 0
110 -330 141 -361 0
111 331 206 426 0
-111 331 -206 426 0
111 -331 206 -426 0
111 331 198 418 0
-111 331 -198 418 0
111 -331 198 -418 0
111 331 115 335 0
-111 331 -115 335 0
111 -331 115 -335 0
112 332 156 376 0
-112 332 -156 376 0
112 -332 156 -376 0
112 332 183 403 0
-112 332 -183 403 0
112 -332 183 -403 0
113 333 164 384 0
-113 333 -164 384 0
113 -333 164 -384 0
113 333 168 388 0
-113 333 -168 388 0
113 -333 168 -388 0
113 333 138 358 0
-113 333 -138 358 0
113 -333 138 -358 0
114 334 169 389 0
-114 334 -169 389 0
114 -334 169 -389 0
115 335 122 342 0
-115 335 -122 342 0
115 -335 122 -342 0
116 336 209 429 0
-116 336 -209 429 0
116 -336 209 -429 0
116 336 163 383 0
-116 336 -163 383 0
116 -336 163 -383 0
116 336 179 399 0
-116 336 -179 399 0
116 -336 179 -399 0
117 337 168 388 0
-117 337 -168 388 0
117 -337 168 -388 0
117 337 149 369 0
-117 337 -149 369 0
117 -337 149 -369 0
117 337 211 431 0
-117 337 -211 431 0
117 -337 211 -431 0
118 338 142 362 0
-118 338 -142 362 0
118 -338 142 -362 0
118 338 200 420 0
-118 338 -200 420 0
118 -338 200 -420 0
118 338 218 438 0
-118 338 -218 438 0
118 -338 218 -438 0
119 339 201 421 0
-119 339 -201 421 0
119 -339 201 -421 0
119 339 159 379 0
-119 339 -159 379 0
119 -339 159 -379 0
119 339 173 393 0
-119 339 -173 393 0
119 -339 173 -393 0
120 340 123 343 0
-120 340 -123 343 0
120 -340 123 -343 0
120 340 128 348 0
-120 340 -128 348 0
120 -340 128 -348 0
120 340 167 387 0
-120 340 -167 387 0
120 -340 167 -387 0
121 341 195 415 0
-121 341 -195 415 0
121 -341 195 -415 0
121 341 160 380 0
-121 341 -160 380 0
121 -341 160 -380 0
122 342 219 439 0
-122 342 -219 439 0
122 -342 219 -439 0
123 343 126 346 0
-123 343 -126 346 0
123 -343 126 -346 0
123 343 177 397 0
-123 343 -177 397 0
123 -343 177 -397 0
124 344 135 355 0
-124 344 -135 355 0
124 -344 135 -355 0
124 344 132 352 0
-124 344 -132 352 0
124 -344 132 -352 0
125 345 217 437 0
-125 345 -217 437 0
125 -345 217 -437 0
125 345 191 411 0
-125 345 -191 411 0
125 -345 191 -411 0
126 346 141 361 0
-126 346 -141 361 0
126 -346 141 -361 0
126 346 150 370 0
-126 346 -150 370 0
126 -346 150 -370 0
127 347 139 359 0
-127 347 -139 359 0
127 -347 139 -359 0
127 347 130 350 0
-127 347 -130 350 0
127 -347 130 -350 0
127 347 171 391 0
-127 347 -171 391 0
127 -347 171 -391 0
127 347 194 414 0
-127 347 -194 414 0
127 -347 194 -414 0
128 348 151 371 0
-128 348 -151 371 0
128 -348 151 -371 0
128 348 131 351 0
-128 348 -131 351 0
128 -348 131 -351 0
128 348 187 407 0
-128 348 -187 407 0
128 -348 187 -407 0
129 349 137 357 0
-129 349 -137 357 0
129 -349 137 -357 0
130 350 154 374 0
-130 350 -154 374 0
130 -350 154 -374 0
130 350 176 396 0
-130 350 -176 396 0
130 -350 176 -396 0
131 351 138 358 0
-131 351 -138 358 0
131 -351 138 -358 0
131 351 151 371 0
-131 351 -151 371 0
131 -351 151 -371 0
132 352 199 419 0
-132 352 -199 419 0
132 -352 199 -419 0
132 352 181 401 0
-132 352 -181 401 0
132 -352 181 -401 0
133 353 200 420 0
-133 353 -200 420 0
133 -353 200 -420 0
133 353 214 434 0
-133 353 -214 434 0
133 -353 214 -434 0
133 353 193 413 0
-133 353 -193 413 0
133 -353 193 -413 0
134 354 210 430 0
-134 354 -210 430 0
134 -354 210 -430 0
134 354 210 430 0
-134 354 -210 430 0
134 -354 210 -430 0
135 355 154 374 0
-135 355 -154 374 0
135 -355 154 -374 0
135 355 168 388 0
-135 355 -168 388 0
135 -355 168 -388 0
136 356 186 406 0
-136 356 -186 406 0
136 -356 186 -406 0
136 356 199 419 0
-136 356 -199 419 0
136 -356 199 -419 0
137 357 214 434 0
-137 357 -214 434 0
137 -357 214 -434 0
137 357 182 402 0
-137 357 -182 402 0
137 -357 182 -402 0
138 358 165 385 0
-138 358 -165 385 0
138 -358 165 -385 0
139 359 174 394 0
-139 359 -174 394 0
139 -359 174 -394 0
139 359 217 437 0
-139 359 -217 437 0
139 -359 217 -437 0
140 360 185 405 0
-140 360 -185 405 0
140 -360 185 -405 0
140 360 166 386 0
-140 360 -166 386 0
140 -360 166 -386 0
140 360 142 362 0
-140 360 -142 362 0
140 -360 142 -362 0
141 361 192 412 0
-141 361 -192 412 0
141 -361 192 -412 0
141 361 172 392 0
-141 361 -172 392 0
141 -361 172 -392 0
143 363 163 383 0
-143 363 -163 383 0
143 -363 163 -383 0
144 364 198 418 0
-144 364 -198 418 0
144 -364 198 -418 0
144 364 183 403 0
-144 364 -183 403 0
144 -364 183 -403 0
144 364 183 403 0
-144 364 -183 403 0
144 -364 183 -403 0
145 365 206 426 0
-145 365 -206 426 0
145 -365 206 -426 0
146 366 194 414 0
-146 366 -194 414 0
146 -366 194 -414 0
147 367 215 435 0
-147 367 -215 435 0
147 -367 215 -435 0
149 369 218 438 0
-149 369 -218 438 0
149 -369 218 -438 0
150 370 169 389 0
-150 370 -169 389 0
150 -370 169 -389 0
150 370 164 384 0
-150 370 -164 384 0
150 -370 164 -384 0
151 371 154 374 0
-151 371 -154 374 0
151 -371 154 -374 0
151 371 171 391 0
-151 371 -171 391 0
151 -371 171 -391 0
152 372 172 392 0
-152 372 -172 392 0
152 -372 172 -392 0
152 372 173 393 0
-152 372 -173 393 0
152 -372 173 -393 0
153 373 157 377 0
-153 373 -157 377 0
153 -373 157 -377 0
153 373 219 439 0
-153 373 -219 439 0
153 -373 219 -439 0
155 375 197 417 0
-155 375 -197 417 0
155 -375 197 -417 0
155 375 201 421 0
-155 375 -201 421 0
155 -375 201 -421 0
156 376 206 426 0
-156 376 -206 426 0
156 -376 206 -426 0
157 377 166 386 0
-157 377 -166 386 0
157 -377 166 -386 0
157 377 188 408 0
-157 377 -188 408 0
157 -377 188 -408 0
158 378 208 428 0
-158 378 -208 428 0
158 -378 208 -428 0
158 378 216 436 0
-158 378 -216 436 0
158 -378 216 -436 0
158 378 194 414 0
-158 378 -194 414 0
158 -378 194 -414 0
159 379 205 425 0
-159 379 -205 425 0
159 -379 205 -425 0
159 379 161 381 0
-159 379 -161 381 0
159 -379 161 -381 0
160 380 189 409 0
-160 380 -189 409 0
160 -380 189 -409 0
161 381 220 440 0
-161 381 -220 440 0
161 -381 220 -440 0
161 381 186 406 0
-161 381 -186 406 0
161 -381 186 -406 0
162 382 190 410 0
-162 382 -190 410 0
162 -382 190 -410 0
162 382 171 391 0
-162 382 -171 391 0
162 -382 171 -391 0
162 382 165 385 0
-162 382 -165 385 0
162 -382 165 -385 0
163 383 220 440 0
-163 383 -220 440 0
163 -383 220 -440 0
164 384 170 390 0
-164 384 -170 390 0
164 -384 170 -390 0
165 385 166 386 0
-165 385 -166 386 0
165 -385 166 -386 0
165 385 196 416 0
-165 385 -196 416 0
165 -385 196 -416 0
166 386 204 424 0
-166 386 -204 424 0
166 -386 204 -424 0
167 387 199 419 0
-167 387 -199 419 0
167 -387 199 -419 0
168 388 197 417 0
-168 388 -197 417 0
168 -388 197 -417 0
169 389 175 395 0
-169 389 -175 395 0
169 -389 175 -395 0
172 392 212 432 0
-172 392 -212 432 0
172 -392 212 -432 0
173 393 200 420 0
-173 393 -200 420 0
173 -393 200 -420 0
174 394 206 426 0
-174 394 -206 426 0
174 -394 206 -426 0
175 395 177 397 0
-175 395 -177 397 0
175 -395 177 -397 0
176 396 205 425 0
-176 396 -205 425 0
176 -396 205 -425 0
176 396 195 415 0
-176 396 -195 415 0
176 -396 195 -415 0
177 397 196 416 0
-177 397 -196 416 0
177 -397 196 -416 0
178 398 182 402 0
-178 398 -182 402 0
178 -398 182 -402 0
178 398 207 427 0
-178 398 -207 427 0
178 -398 207 -427 0
179 399 197 417 0
-179 399 -197 417 0
179 -399 197 -417 0
179 399 214 434 0
-179 399 -214 434 0
179 -399 214 -434 0
180 400 195 415 0
-180 400 -195 415 0
180 -400 195 -415 0
181 401 217 437 0
-181 401 -217 437 0
181 -401 217 -437 0
182 402 193 413 0
-182 402 -193 413 0
182 -402 193 -413 0
182 402 186 406 0
-182 402 -186 406 0
182 -402 186 -406 0
184 404 203 423 0
-184 404 -203 423 0
184 -404 203 -423 0
184 404 196 416 0
-184 404 -196 416 0
184 -404 196 -416 0
186 406 209 429 0
-186 406 -209 429 0
186 -406 209 -429 0
187 407 190 410 0
-187 407 -190 410 0
187 -407 190 -410 0
190 410 197 417 0
-190 410 -197 417 0
190 -410 197 -417 0
192 412 198 418 0
-192 412 -198 418 0
192 -412 198 -418 0
194 414 210 430 0
-194 414 -210 430 0
194 -414 210 -430 0
199 419 211 431 0
-199 419 -211 431 0
199 -419 211 -431 0
201 421 219 439 0
-201 421 -219 439 0
201 -421 219 -439 0
202 422 207 427 0
-202 422 -207 427 0
202 -422 207 -427 0
202 422 212 432 0
-202 422 -212 432 0
202 -422 212 -432 0
202 422 208 428 0
-202 422 -208 428 0
202 -422 208 -428 0
203 423 212 432 0
-203 423 -212 432 0
203 -423 212 -432 0
